proyfinal/src/viki/013/andrea/andrea-localstore/experimentInOfficeAgust.take6/worker_11/29dcbf99-db6f-4209-beb6-7423bef0148a.als.cnf.out
Reading from standard input... Use '--help' for help.
============================[ Problem Statistics ]=============================
|                                                                             |
|  Number of variables:         87638                                         |
|  Number of clauses:          161767                                         |
|  Parse time:                   0.04 s                                       |
|                                                                             |
============================[ Search Statistics ]==============================
| Conflicts |          ORIGINAL         |          LEARNT          | Progress |
|           |    Vars  Clauses Literals |    Limit  Clauses Lit/Cl |          |
===============================================================================
|       100 |   65105   115108   287158 |    42206      100     26 | 25.711 % |
|       250 |   65105   115108   287158 |    46426      250     41 | 25.711 % |
|       475 |   65105   115108   287158 |    51069      475     56 | 25.711 % |
|       812 |   65105   115108   287158 |    56176      812     63 | 25.711 % |
|      1318 |   57798    92741   232063 |    61794     1311     83 | 34.049 % |
|      2077 |   57668    92256   230917 |    67973     2063     82 | 34.197 % |
|      3216 |   57491    91645   229419 |    74770     3196     72 | 34.399 % |
|      4924 |   57415    91380   228783 |    82248     4900     71 | 34.486 % |
|      7486 |   57415    91380   228783 |    90472     7462     80 | 34.486 % |
|     11330 |   57233    90677   227168 |    99520    11259     91 | 34.694 % |
|     17096 |   57215    90591   226962 |   109472    17022    106 | 34.714 % |
===============================================================================
restarts              : 63
conflicts             : 17225          (6852 /sec)
decisions             : 80207          (0.00 % random) (31906 /sec)
propagations          : 26838443       (10676142 /sec)
conflict literals     : 1811794        (27.57 % deleted)
Memory used           : 39.49 MB
CPU time              : 2.51387 s

INDETERMINATE
